 vasp.6.4.1 05Apr23 (build Jan 13 2025 16:05:33) complex

 executed on             LinuxIFC date 2025.10.10  22:56:35

 INCAR:
   NCORE = 24
   SYSTEM = SiH3
   PREC = HIGH
   IBRION = 2
   NSW = 100
   ISPIN = 2
   LHYPERFINE = .TRUE.
   NGYROMAG = -8.461871 42.577478518

 POTCAR:    PAW_PBE Si 05Jan2001
 POTCAR:    PAW_PBE H 15Jun2001
|           W    W    AA    RRRRR   N    N  II  N    N   GGGG   !!!           |
|           W    W   A  A   R    R  NN   N  II  NN   N  G    G  !!!           |
|           W    W  A    A  R    R  N N  N  II  N N  N  G       !!!           |
|           W WW W  AAAAAA  RRRRR   N  N N  II  N  N N  G  GGG   !            |
|           WW  WW  A    A  R   R   N   NN  II  N   NN  G    G                |
|           W    W  A    A  R    R  N    N  II  N    N   GGGG   !!!           |
|     You use a magnetic or noncollinear calculation, but did not specify     |
|     the initial magnetic moment with the MAGMOM tag. Note that a            |
|     default of 1 will be used for all atoms. This ferromagnetic setup       |
|     may break the symmetry of the crystal, in particular it may rule        |
|     out finding an antiferromagnetic solution. Thence, we recommend         |
|     setting the initial magnetic moment manually or verifying carefully     |
|     that this magnetic setup is desired.                                    |

   TITEL  = PAW_PBE Si 05Jan2001
   POMASS =   28.085; ZVAL   =    4.000    mass and valenz
   ENMAX  =  245.345; ENMIN  =  184.009 eV

   TITEL  = PAW_PBE H 15Jun2001
   POMASS =    1.000; ZVAL   =    1.000    mass and valenz
   ENMAX  =  250.000; ENMIN  =  200.000 eV

  PAW_PBE Si 05Jan2001                  :
  PAW_PBE H 15Jun2001                   :

 POSCAR: SiH3 molecule
  positions in direct lattice
  velocities in cartesian coordinates
 exchange correlation table for  LEXCH =        8
   RHO(1)=    0.500       N(1)  =     2000
   RHO(2)=  100.500       N(2)  =     4000

 ion  position               nearest neighbor table
   1  0.515  0.529  0.387-   2 1.51   3 1.51
   2  0.507  0.678  0.369-   1 1.51
   3  0.651  0.483  0.339-   1 1.51
   4  0.493  0.322  0.631-

  LATTYP: Found a simple cubic cell.
 ALAT       =    10.0000000000

  Lattice vectors:

 A1 = (  10.0000000000,   0.0000000000,   0.0000000000)
 A2 = (   0.0000000000,  10.0000000000,   0.0000000000)
 A3 = (   0.0000000000,   0.0000000000,  10.0000000000)

Analysis of symmetry for initial positions (statically):
 Subroutine PRICEL returns:
 Original cell was already a primitive cell.

 Routine SETGRP: Setting up the symmetry group for a
 simple cubic supercell.

 Subroutine GETGRP returns: Found  1 space group operations
 (whereof  1 operations were pure point group operations)
 out of a pool of 48 trial point group operations.

The static configuration has the point symmetry C_1 .

Analysis of symmetry for dynamics (positions and initial velocities):
 Subroutine PRICEL returns:
 Original cell was already a primitive cell.

[...]

The dynamic configuration has the point symmetry C_1 .

Analysis of structural, dynamic, and magnetic symmetry:
 Subroutine PRICEL returns:
 Original cell was already a primitive cell.

 Routine SETGRP: Setting up the symmetry group for a
 simple cubic supercell.

 Subroutine GETGRP returns: Found  1 space group operations
 (whereof  1 operations were pure point group operations)
 out of a pool of 48 trial point group operations.

The overall configuration has the point symmetry C_1 .

 Subroutine INISYM returns: Found  1 space group operations
 (whereof  1 operations are pure point group operations),
 and found     1 'primitive' translations

                                     Primitive cell

  volume of cell :    1000.0000

  direct lattice vectors                    reciprocal lattice vectors
    10.000000000  0.000000000  0.000000000     0.100000000  0.000000000  0.000000000
     0.000000000 10.000000000  0.000000000     0.000000000  0.100000000  0.000000000
     0.000000000  0.000000000 10.000000000     0.000000000  0.000000000  0.100000000

  length of vectors
    10.000000000 10.000000000 10.000000000     0.100000000  0.100000000  0.100000000

  position of ions in fractional coordinates (direct lattice)
     0.515291871  0.528559150  0.386955044
     0.506611261  0.678134608  0.368669885
     0.651163209  0.483129622  0.339106802
     0.493388739  0.321865392  0.631330115

  ion indices of the primitive-cell ions
   primitive index   ion index
                 1           1
                 2           2
                 3           3
                 4           4

 KPOINTS: test case

Automatic generation of k-mesh.
 Grid dimensions read from file:
 generate k-points for:    1    1    1

 Generating k-lattice:

  Cartesian coordinates                     Fractional coordinates (reciprocal lattice)
     0.100000000  0.000000000  0.000000000     1.000000000  0.000000000  0.000000000
     0.000000000  0.100000000  0.000000000     0.000000000  1.000000000  0.000000000
     0.000000000  0.000000000  0.100000000     0.000000000  0.000000000  1.000000000

  Length of vectors
     0.100000000  0.100000000  0.100000000

  Shift w.r.t. Gamma in fractional coordinates (k-lattice)
     0.000000000  0.000000000  0.000000000

 Subroutine IBZKPT returns following result:

 Found      1 irreducible k-points:

 Following reciprocal coordinates:
            Coordinates               Weight
  0.000000  0.000000  0.000000      1.000000

 Following cartesian coordinates:
            Coordinates               Weight
  0.000000  0.000000  0.000000      1.000000

 SYSTEM =  SiH3
 POSCAR =  SiH3 molecule

 Startparameter for this run:
   NWRITE =      2    write-flag & timer
   PREC   = high      normal or accurate (medium, high low for compatibility)
   ISTART =      1    job   : 0-new  1-cont  2-samecut
   ICHARG =      0    charge: 1-file 2-atom 10-const
   ISPIN  =      2    spin polarized calculation?
   LNONCOLLINEAR =      F non collinear calculations
   LSORBIT =      F    spin-orbit coupling
   INIWAV =      1    electr: 0-lowe 1-rand  2-diag
   LASPH  =      F    aspherical Exc in radial PAW
 Electronic Relaxation 1
   ENCUT  =  312.5 eV  22.97 Ry    4.79 a.u.  14.41 14.41 14.41*2*pi/ulx,y,z
   ENINI  =  312.5     initial cutoff
   ENAUG  =  400.0 eV  augmentation charge cutoff
   NELM   =     60;   NELMIN=  2; NELMDL=  0     # of ELM steps
   EDIFF  = 0.1E-03   stopping-criterion for ELM
   LREAL  =      F    real-space projection
   NLSPLINE    = F    spline interpolate recip. space projectors
   LCOMPAT=      F    compatible to vasp.4.4
   GGA_COMPAT  = T    GGA compatible to vasp.4.4-vasp.4.6
   LMAXPAW     = -100 max onsite density
   LMAXMIX     =    2 max onsite mixed and CHGCAR
   VOSKOWN=      0    Vosko Wilk Nusair interpolation
   ROPT   =    0.00000   0.00000
 Ionic relaxation
   EDIFFG = 0.1E-02   stopping-criterion for IOM
   NSW    =    100    number of steps for IOM
   NBLOCK =      1;   KBLOCK =    100    inner block; outer block
   IBRION =      2    ionic relax: 0-MD 1-quasi-New 2-CG
   NFREE  =      1    steps in history (QN), initial steepest desc. (CG)
   ISIF   =      2    stress and relaxation
   IWAVPR =     11    prediction:  0-non 1-charg 2-wave 3-comb
   ISYM   =      2    0-nonsym 1-usesym 2-fastsym
   LCORR  =      T    Harris-Foulkes like correction to forces

   POTIM  = 0.5000    time-step for ionic-motion
   TEIN   =    0.0    initial temperature
   TEBEG  =    0.0;   TEEND  =   0.0 temperature during run
   SMASS  =  -3.00    Nose mass-parameter (am)
   estimated Nose-frequenzy (Omega)   =  0.10E-29 period in steps = 0.13E+47 mass=  -0.229E-26a.u.
   SCALEE = 1.0000    scale energy and forces
   NPACO  =    256;   APACO  = 10.0  distance and # of slots for P.C.
   PSTRESS=    0.0 pullay stress

  Mass of Ions in am
   POMASS =  28.09  1.00
  Ionic Valenz
   ZVAL   =   4.00  1.00
  Atomic Wigner-Seitz radii
  virtual crystal weights
   VCA    =   1.00  1.00
   NELECT =       7.0000    total number of electrons
   NUPDOWN=      -1.0000    fix difference up-down

 DOS related values:
   EMIN   =  10.00;   EMAX   =-10.00  energy-range for DOS
   EFERMI =   0.00;   METHOD = LEGACY
   ISMEAR =     1;   SIGMA  =   0.20  broadening in eV -4-tet -1-fermi 0-gaus

 Electronic relaxation 2 (details)
   IALGO  =     38    algorithm
   LDIAG  =      T    sub-space diagonalisation (order eigenvalues)
   LSUBROT=      F    optimize rotation matrix (better conditioning)
   TURBO    =      0    0=normal 1=particle mesh
   IRESTART =      0    0=no restart 2=restart with 2 vectors
   NREBOOT  =      0    no. of reboots
   NMIN     =      0    reboot dimension
   EREF     =   0.00    reference energy to select bands
   IMIX   =      4    mixing-type and parameters
     AMIX     =   0.40;   BMIX     =  1.00
     AMIX_MAG =   1.60;   BMIX_MAG =  1.00
     AMIN     =   0.10
     WC   =   100.;   INIMIX=   1;  MIXPRE=   1;  MAXMIX= -45

 Intra band minimization:
   WEIMIN = 0.0010     energy-eigenvalue tresh-hold
   EBREAK =  0.21E-05  absolut break condition
   DEPER  =   0.30     relativ break condition

   TIME   =   0.40     timestep for ELM

  volume/ion in A,a.u.               =     250.00      1687.08
  Fermi-wavevector in a.u.,A,eV,Ry     =   0.313166  0.591797  1.334361  0.098073
  Thomas-Fermi vector in A             =   1.193276

 Write flags
   LWAVE        =      T    write WAVECAR
   LDOWNSAMPLE  =      F    k-point downsampling of WAVECAR
   LCHARG       =      T    write CHGCAR
   LVTOT        =      F    write LOCPOT, total local potential
   LVHAR        =      F    write LOCPOT, Hartree potential only
   LELF         =      F    write electronic localiz. function (ELF)
   LORBIT       =      0    0 simple, 1 ext, 2 COOP (PROOUT), +10 PAW based schemes

 Dipole corrections
   LMONO  =      F    monopole corrections only (constant potential shift)
   LDIPOL =      F    correct potential (dipole corrections)
   IDIPOL =      0    1-x, 2-y, 3-z, 4-all directions
   EPSILON=  1.0000000 bulk dielectric constant

 Exchange correlation treatment:
   GGA     =    --    GGA type
   VOSKOWN =     0    Vosko Wilk Nusair interpolation
   LHFCALC =     F    Hartree Fock is set to
   LHFONE  =     F    Hartree Fock one center treatment
   AEXX    =    0.0000 exact exchange contribution

 Linear response parameters
   LEPSILON=     F    determine dielectric tensor
   LRPA    =     F    only Hartree local field effects (RPA)
   LNABLA  =     F    use nabla operator in PAW spheres
   LVEL    =     F    velocity operator in full k-point grid
   CSHIFT  =0.1000    complex shift for real part using Kramers Kronig
   OMEGAMAX=  -1.0    maximum frequency
   DEG_THRESHOLD= 0.2000000E-02 threshold for treating states as degnerate
   RTIME   =   -0.100 relaxation time in fs
  (WPLASMAI=    0.000 imaginary part of plasma frequency in eV, 0.658/RTIME)
   DFIELD  = 0.0000000 0.0000000 0.0000000 field for delta impulse in time

  Optional k-point grid parameters
   LKPOINTS_OPT  =     F    use optional k-point grid
   KPOINTS_OPT_MODE=     1    mode for optional k-point grid

 Orbital magnetization related:
[...]
      7       0.3658      0.00000
      8       0.5259      0.00000
      9       1.0932      0.00000
     10       1.1852      0.00000
     11       1.2831      0.00000
     12       1.4275      0.00000
 Fermi energy:        -5.1350951187

[...]

 k-point     1 :       0.0000    0.0000    0.0000
  band No.  band energies     occupation
      1     -12.4226      1.00000
      2      -8.3864      1.00000
      3      -7.1022      1.00000
      4      -5.2861      0.97770
      5      -3.5515     -0.00000
      6      -0.4447     -0.00000
      7       0.1996     -0.00000
      8       0.4108      0.00000
      9       0.8913      0.00000
     10       1.0222      0.00000
     11       1.0535      0.00000
     12       1.1554      0.00000

 soft charge-density along one line, spin component           1
         0         1         2         3         4         5         6         7         8         9
 total charge-density along one line

[...]

------------------------ aborting loop because EDIFF is reached ----------------------------------------

  FORCE on cell =-STRESS in cart. coord.  units (eV):
  Direction    XX          YY          ZZ          XY          YZ          ZX
  Alpha Z     0.11007     0.11007     0.11007
  Ewald       0.15531    23.39911   -13.48802   -13.47400    -9.26045   -12.52095
  Hartree    34.72428    48.28221    33.75871    -3.76372    -7.37886    -6.19072
  E(xc)     -20.48803   -20.45288   -20.43597    -0.02063    -0.02212     0.00733
  Local     -96.08234  -132.89817   -74.83464    15.74831    18.50687    22.14878
  n-local    33.89764    34.94570    28.76788    -0.90576    -0.62047    -2.25054
  augment    -6.33781    -6.43557    -5.30537    -0.03537     0.19711     0.49171
  Kinetic    54.00239    52.36849    50.61740     2.97408    -1.12908    -1.87851
  Fock        0.00000     0.00000     0.00000     0.00000     0.00000     0.00000
  Total      -0.01849    -0.68105    -0.80994     0.52293     0.29300    -0.19289
  in kB      -0.02962    -1.09116    -1.29767     0.83782     0.46943    -0.30905

 VOLUME and BASIS-vectors are now :
  energy-cutoff  :      312.50
  volume of cell :     1000.00
      direct lattice vectors                 reciprocal lattice vectors
    10.000000000  0.000000000  0.000000000     0.100000000  0.000000000  0.000000000
     0.000000000 10.000000000  0.000000000     0.000000000  0.100000000  0.000000000
     0.000000000  0.000000000 10.000000000     0.000000000  0.000000000  0.100000000

[...]

 FORCES acting on ions
    electron-ion (+dipol)            ewald-force                    non-local-force                 convergence-correction
   0.178E+02 0.117E+02 -.651E+01   -.206E+02 -.140E+02 0.723E+01   0.198E+01 0.139E+01 -.169E+00   0.280E-03 0.777E-03 -.152E-02
   0.295E+01 -.237E+02 0.262E+01   -.276E+01 0.268E+02 -.308E+01   0.287E+00 -.284E+01 0.317E+00   0.128E-03 0.574E-04 -.372E-03
   -.212E+02 0.834E+01 0.777E+01   0.241E+02 -.889E+01 -.883E+01   -.255E+01 0.993E+00 0.879E+00   0.135E-03 0.251E-03 -.313E-03
   0.754E+00 0.415E+01 -.489E+01   -.764E+00 -.395E+01 0.468E+01   0.312E-01 0.243E-01 -.356E-02   -.803E-05 0.137E-03 0.108E-03
   0.253E+00 0.436E+00 -.102E+01   0.366E-14 0.888E-15 0.000E+00   -.254E+00 -.437E+00 0.102E+01   0.535E-03 0.122E-02 -.209E-02

 POSITION                                       TOTAL-FORCE (eV/Angst)
      5.15292      5.28559      3.86955        -0.808420     -0.922030      0.545520
      5.06611      6.78135      3.68670         0.477848      0.252549     -0.150656
      6.51163      4.83130      3.39107         0.309959      0.443944     -0.182409
      4.93389      3.21865      6.31330         0.020614      0.225537     -0.212455
    total drift:                               -0.000483      0.000713      0.000274

  FREE ENERGIE OF THE ION-ELECTRON SYSTEM (eV)
  free  energy   TOTEN  =       -10.53709212 eV

  energy  without entropy=      -10.54807661  energy(sigma->0) =      -10.54075362

 Total magnetic moment S=     0.9553269

 Fermi contact (isotropic) hyperfine coupling parameter (MHz)
  ion      A_pw      A_1PS     A_1AE     A_1c      A_tot
   1      -0.254    -0.236    67.018     0.585    67.000
   2      -5.748    -5.944    -9.716     0.000    -9.521
   3       4.811     4.974     8.116     0.000     7.953
   4    -812.730  -838.570 -1369.250     0.000 -1343.411

 Dipolar hyperfine coupling parameters (MHz)
  ion      A_xx      A_yy      A_zz      A_xy      A_xz      A_yz
   1      76.252    19.451   -95.703    46.092    78.928    72.702
   2      -3.265    -1.240     4.505    -1.159    -4.777     0.940
   3      -1.107    -0.434     1.540    -3.310     0.135    -4.037
   4      -1.747     1.639     0.108     0.048    -0.185    -2.820

 Total hyperfine coupling parameters after diagonalization (MHz)
 (convention: |A_zz| > |A_xx| > |A_yy|)
  ion      A_xx      A_yy      A_zz     asymmetry (A_yy - A_xx)/ A_zz
   1     -77.421    63.896   214.526       0.659
   2     -10.884    -2.522   -15.155      -0.552
   3       7.764     2.649    13.445      -0.380
   4   -1345.121 -1339.611 -1345.500      -0.004

[...]

 d Force = 0.7402479E-01[ 0.256E-01, 0.122E+00]  d Energy = 0.7373748E-01 0.287E-03
 d Force = 0.2058105E+01[ 0.206E+01, 0.206E+01]  d Ewald  = 0.2061111E+01-0.301E-02

[...]

 Steepest descent step on ions:
 trial-energy change:   -0.073737  1 .order   -0.074025   -0.122486   -0.025564
  (g-gl).g = 0.122E+00      g.g   = 0.122E+00  gl.gl    = 0.000E+00
 g(Force)  = 0.122E+00   g(Stress)= 0.000E+00 ortho     = 0.000E+00
 gamma     =   0.00000
 trial     =   1.00000
 opt step  =   1.26375  (harmonic =   1.26375) maximal distance =0.03325864
 next E    =   -10.614488   (d E  =  -0.07740)

[...]

 d Force = 0.4451538E-01[ 0.383E-01, 0.507E-01]  d Energy = 0.4465454E-01-0.139E-03
 d Force =-0.8804294E+00[-0.866E+00,-0.895E+00]  d Ewald  =-0.8805699E+00 0.140E-03

[...]

 Conjugate gradient step on ions:
 trial-energy change:   -0.044655  1 .order   -0.044515   -0.050739   -0.038291
  (g-gl).g = 0.469E-01      g.g   = 0.478E-01  gl.gl    = 0.122E+00
 g(Force)  = 0.478E-01   g(Stress)= 0.000E+00 ortho     = 0.910E-03
 gamma     =   0.38321
 trial     =   1.05275
 opt step  =   4.21100  (harmonic =   4.29111) maximal distance =0.11756614
 next E    =   -10.717502   (d E  =  -0.10341)

[...]

 d Force = 0.5636051E-01[-0.215E-02, 0.115E+00]  d Energy = 0.5680004E-01-0.440E-03
 d Force =-0.2458547E+01[-0.232E+01,-0.260E+01]  d Ewald  =-0.2460546E+01 0.200E-02

[...]

 Conjugate gradient step on ions:
 trial-energy change:   -0.028657  1 .order   -0.028199   -0.033941   -0.022456
  (g-gl).g = 0.142E-01      g.g   = 0.204E-01  gl.gl    = 0.478E-01
 g(Force)  = 0.204E-01   g(Stress)= 0.000E+00 ortho     =-0.682E-03
 gamma     =   0.29585
 trial     =   1.68440
 opt step  =   3.81981  (harmonic =   4.97781) maximal distance =0.07374548
 next E    =   -10.759371   (d E  =  -0.04382)

[...]

 d Force =-0.1981108E+02[-0.421E+02, 0.246E+01]  d Energy =-0.9825558E+01-0.999E+01
 d Force =-0.4729276E+02[-0.707E+02,-0.239E+02]  d Ewald  =-0.4143157E+02-0.586E+01

[...]

 d Force = 0.1881892E+02[-0.212E+01, 0.398E+02]  d Energy = 0.9955431E+01 0.886E+01
 d Force = 0.4519831E+02[ 0.236E+02, 0.668E+02]  d Ewald  = 0.4008429E+02 0.511E+01

[...]

 Steepest descent step on ions:
 trial-energy change:   -0.541348  1 .order   -0.599764   -1.124225   -0.075303
  (g-gl).g = 0.189E+01      g.g   = 0.248E+01  gl.gl    = 0.149E+00
 g(Force)  = 0.248E+01   g(Stress)= 0.000E+00 ortho     = 0.652E+00
 gamma     =   0.00000
 trial     =   0.45287
 opt step  =   0.50467  (harmonic =   0.48538) maximal distance =0.09197872
 next E    =   -13.352723   (d E  =  -0.54557)

[...]

 d Force = 0.3933920E-02[-0.746E-03, 0.861E-02]  d Energy = 0.3675340E-02 0.259E-03
 d Force = 0.3193105E+00[ 0.309E+00, 0.329E+00]  d Ewald  = 0.3192579E+00 0.526E-04

[...]

 eigenvalues of (default mixing * dielectric matrix)
  average eigenvalue GAMMA=   1.1402
  2.2588  0.8542  0.8542  0.5936

[...]

 d Force = 0.7414605E-05[ 0.210E-05, 0.127E-04]  d Energy = 0.4896469E-04-0.416E-04
 d Force = 0.1427499E-01[ 0.143E-01, 0.143E-01]  d Ewald  = 0.1427499E-01 0.150E-08

[...]

 Conjugate gradient step on ions:
 trial-energy change:   -0.000932  1 .order   -0.000951   -0.001412   -0.000490
  (g-gl).g = 0.288E-02      g.g   = 0.231E-02  gl.gl    = 0.308E-01
 g(Force)  = 0.231E-02   g(Stress)= 0.000E+00 ortho     = 0.133E-03
 gamma     =   0.09356
 trial     =   0.60820
 opt step  =   0.93130  (harmonic =   0.93130) maximal distance =0.00667008
 next E    =   -13.816449   (d E  =  -0.00108)

[...]

 d Force = 0.6585611E-03[ 0.425E-03, 0.892E-03]  d Energy = 0.5976146E-03 0.609E-04
 d Force =-0.1041685E+00[-0.104E+00,-0.105E+00]  d Ewald  =-0.1041689E+00 0.377E-06

[...]

 Conjugate gradient step on ions:
 trial-energy change:   -0.000598  1 .order   -0.000659   -0.000892   -0.000425
  (g-gl).g = 0.133E-02      g.g   = 0.133E-02  gl.gl    = 0.231E-02
 g(Force)  = 0.133E-02   g(Stress)= 0.000E+00 ortho     =-0.832E-05
 gamma     =   0.57393
 trial     =   0.67282
 opt step  =   1.28426  (harmonic =   1.28426) maximal distance =0.00582449
 next E    =   -13.817250   (d E  =  -0.00085)

--------------------------------------- Ionic step       29  -------------------------------------------

[...]

 eigenvalue-minimisations  :    64
 total energy-change (2. order) :-0.1390350E-03  (-0.1103525E-02)
 number of electron       6.9999994 magnetization      -1.0000000
 augmentation part       -0.1722312 magnetization       0.0271890

 Broyden mixing:
  rms(total) = 0.48473E-02    rms(broyden)= 0.48459E-02
  rms(prec ) = 0.58729E-02
  weight for this iteration     100.00

[...]

--------------------------------------- Iteration     29(   2)  ---------------------------------------

 eigenvalue-minimisations  :    72
 total energy-change (2. order) : 0.6060158E-04  (-0.3181283E-04)
 number of electron       6.9999994 magnetization      -1.0000000
 augmentation part       -0.1722312 magnetization       0.0271890

 Free energy of the ion-electron system (eV)
  alpha Z        PSCENC =         0.11007000
  Ewald energy   TEWEN  =        34.52807110
  -Hartree energ DENC   =      -140.57045583
  -exchange      EXHF   =         0.00000000
  -V(xc)+E(xc)   XCENC  =        -1.57690269
  PAW double counting   =       493.94645620     -476.52548648
  entropy T*S    EENTRO =         0.00579791
  eigenvalues    EBANDS =       -64.15768915
  atomic energy  EATOM  =       140.42303797
  Solvation  Ediel_sol  =         0.00000000
  free energy    TOTEN  =       -13.81710098 eV

  energy without entropy =      -13.82289889  energy(sigma->0) =      -13.81903362

 average (electrostatic) potential at core
  the test charge radii are     0.9892  0.5201
  (the norm of the test charge is              1.0000)
       1 -93.4130       2 -40.8883       3 -40.8590       4 -40.8618

 E-fermi :  -4.9255     XC(G=0):  -0.8962     alpha+bet : -0.3227

 Fermi energy:        -4.9255173344

[...]

 k-point     1 :       0.0000    0.0000    0.0000
  band No.  band energies     occupation
      1     -12.5677      1.00000
      2      -8.2919      1.00000
      3      -8.2694      1.00000
      4      -3.2189     -0.00000
      5      -0.3546     -0.00000
      6       0.4221     -0.00000
      7       0.4713     -0.00000
      8       0.9500      0.00000
      9       1.1743      0.00000
     10       1.1905      0.00000
     11       1.4457      0.00000
     12       1.5222      0.00000
 Fermi energy:        -4.9255173344

 spin component 2

 k-point     1 :       0.0000    0.0000    0.0000
  band No.  band energies     occupation
      1     -13.0479      1.00000
      2      -8.4549      1.00000
      3      -8.4319      1.00000
      4      -5.0939      1.00000
      5      -0.5809     -0.00000
      6       0.0407     -0.00000
      7       0.0818     -0.00000
      8       0.5476      0.00000
      9       1.0267      0.00000
     10       1.0723      0.00000
     11       1.1563      0.00000
     12       1.2332      0.00000

[...]

 soft charge-density along one line, spin component           2
         0         1         2         3         4         5         6         7         8         9
 total charge-density along one line

------------------------ aborting loop because EDIFF is reached ----------------------------------------

  FORCE on cell =-STRESS in cart. coord.  units (eV):
  Direction    XX          YY          ZZ          XY          YZ          ZX
  Alpha Z     0.11007     0.11007     0.11007
  Ewald       3.23515    21.24845    10.04443   -13.08414   -11.42249   -20.44606
  Hartree    43.65250    50.60442    46.33723    -4.66072    -4.06612    -7.29717
  E(xc)     -21.17815   -21.20046   -21.18496     0.01538     0.01197     0.02288
  Local    -106.68448  -131.43345  -116.10442    17.58402    15.35332    27.49755
  n-local    30.16869    31.88160    30.77768    -1.30527    -1.12166    -2.02714
  augment    -5.38105    -5.50300    -5.42276     0.09498     0.08118     0.14829
  Kinetic    55.70947    53.97534    55.02892     1.30930     1.19199     2.05689
  Fock        0.00000     0.00000     0.00000     0.00000     0.00000     0.00000
  Total      -0.36780    -0.31702    -0.41380    -0.04647     0.02818    -0.04476
  in kB      -0.58928    -0.50793    -0.66299    -0.07445     0.04515    -0.07171

 VOLUME and BASIS-vectors are now :
  energy-cutoff  :      312.50
  volume of cell :     1000.00
      direct lattice vectors                 reciprocal lattice vectors
    10.000000000  0.000000000  0.000000000     0.100000000  0.000000000  0.000000000
     0.000000000 10.000000000  0.000000000     0.000000000  0.100000000  0.000000000
     0.000000000  0.000000000 10.000000000     0.000000000  0.000000000  0.100000000

  length of vectors
    10.000000000 10.000000000 10.000000000     0.100000000  0.100000000  0.100000000

 FORCES acting on ions
    electron-ion (+dipol)            ewald-force                    non-local-force                 convergence-correction
   0.186E+02 0.103E+02 0.156E+02   -.165E+02 -.908E+01 -.138E+02   -.214E+01 -.127E+01 -.176E+01   0.180E-01 0.252E-02 -.149E-01
   0.553E+01 -.255E+02 -.152E+01   -.610E+01 0.285E+02 0.179E+01   0.541E+00 -.295E+01 -.239E+00   0.524E-02 0.614E-02 -.621E-02
   -.227E+02 0.487E+01 0.120E+02   0.254E+02 -.540E+01 -.133E+02   -.265E+01 0.502E+00 0.129E+01   -.211E-02 0.625E-02 0.735E-03
   0.264E+01 0.127E+02 -.227E+02   -.286E+01 -.141E+02 0.253E+02   0.213E+00 0.139E+01 -.263E+01   0.162E-02 -.601E-02 0.444E-02
   0.402E+01 0.231E+01 0.336E+01   0.178E-14 0.178E-14 -.355E-14   -.404E+01 -.232E+01 -.334E+01   0.228E-01 0.889E-02 -.159E-01

 POSITION                                       TOTAL-FORCE (eV/Angst)
      5.17466      4.89840      4.11147         0.007525     -0.065484      0.013278
      4.91264      6.36035      4.23776        -0.028157      0.072673      0.018608
      6.50326      4.65034      3.47701         0.029590     -0.019444     -0.022451
      5.07399      4.20780      5.43437        -0.008958      0.012254     -0.009435
    total drift:                                0.001800     -0.000291      0.001211

  FREE ENERGIE OF THE ION-ELECTRON SYSTEM (eV)
  free  energy   TOTEN  =       -13.81710098 eV

  energy  without entropy=      -13.82289889  energy(sigma->0) =      -13.81903362

 d Force = 0.1910450E-03[-0.397E-05, 0.386E-03]  d Energy = 0.1046346E-03 0.864E-04
 d Force =-0.9398493E-01[-0.937E-01,-0.943E-01]  d Ewald  =-0.9398521E-01 0.287E-06

 Total magnetic moment S=     1.0000000

 Fermi contact (isotropic) hyperfine coupling parameter (MHz)
  ion      A_pw      A_1PS     A_1AE     A_1c      A_tot
   1      -5.238    -5.076   449.111    -3.650   448.950
   2     -12.457   -12.897   -21.174     0.000   -20.733
   3     -12.129   -12.582   -20.658     0.000   -20.205
   4     -12.647   -13.115   -21.526     0.000   -21.059

 Dipolar hyperfine coupling parameters (MHz)
  ion      A_xx      A_yy      A_zz      A_xy      A_xz      A_yz
   1      41.141   -47.756     6.615    69.843   108.551    59.639
   2       1.570    -6.905     5.336     1.602    -6.057    -2.534
   3      -6.924     7.133    -0.209    -0.351     1.754    -5.677
   4       2.666     2.832    -5.498    -5.816    -2.795     4.425

 Total hyperfine coupling parameters after diagonalization (MHz)
 (convention: |A_zz| > |A_xx| > |A_yy|)
  ion      A_xx      A_yy      A_zz     asymmetry (A_yy - A_xx)/ A_zz
   1     362.917   362.833   621.100      -0.000
   2     -23.614   -10.418   -28.168      -0.468
   3     -23.051    -9.906   -27.658      -0.475
   4     -23.877   -10.821   -28.479      -0.458

 reached required accuracy - stopping structural energy minimisation
 writing wavefunctions